mixintcount/benchmarks/random_v2l/4_4_6309.smt2
(set-logic QF_LIA)
(set-info :ran/ran2.smt2)
(set-info :smt-lib-version 2.0)
(declare-fun x1 () Int)
(declare-fun x2 () Int)
(declare-fun x3 () Int)
(declare-fun x4 () Int)
(assert (<= (+ (* (- 7) x1) (* (- 1) x2) (* (- 5) x3) (* (- 8) x4) ) 1274))
(assert (<= (+ (* 6 x1) (* (- 3) x2) (* (- 5) x3) (* (- 7) x4) ) (- 3393)))
(assert (<= (+ (* 10 x1) (* (- 3) x2) (* (- 4) x3) (* 6 x4) ) 2027))
(assert (<= (+ (* (- 9) x1) (* 1 x2) (* 6 x3) (* (- 9) x4) ) 4706))
(assert (<= (+ (* 1 x1) (* 5 x2) (* 8 x3) (* 3 x4) ) 1396))
(assert (<= (+ (* (- 4) x1) (* 4 x2) (* 5 x3) (* (- 3) x4) ) 2152))
(assert (<= (+ (* (- 2) x1) (* 1 x2) (* 8 x3) (* 1 x4) ) 3996))
(assert (<= (+ (* (- 9) x1) (* (- 4) x2) (* 10 x3) (* (- 5) x4) ) 5754))
(assert (<= (+ (* 1 x1) (* 0 x2) (* 0 x3) (* 0 x4) ) 6309))
(assert (<= (+ (* (- 1) x1) (* 0 x2) (* 0 x3) (* 0 x4) ) 6309))
(assert (<= (+ (* 0 x1) (* 1 x2) (* 0 x3) (* 0 x4) ) 6309))
(assert (<= (+ (* 0 x1) (* (- 1) x2) (* 0 x3) (* 0 x4) ) 6309))
(assert (<= (+ (* 0 x1) (* 0 x2) (* 1 x3) (* 0 x4) ) 6309))
(assert (<= (+ (* 0 x1) (* 0 x2) (* (- 1) x3) (* 0 x4) ) 6309))
(assert (<= (+ (* 0 x1) (* 0 x2) (* 0 x3) (* 1 x4) ) 6309))
(assert (<= (+ (* 0 x1) (* 0 x2) (* 0 x3) (* (- 1) x4) ) 6309))
