mixintcount/benchmarks/random_v2l/4_4_6309.in
16 6
#	x1	x2	x3	x4;		0 = Real; 1 = Integer
	1	1	1	1
1	-7	-1	-5	-8	1274
1	6	-3	-5	-7	-3393
1	10	-3	-4	6	2027
1	-9	1	6	-9	4706
1	1	5	8	3	1396
1	-4	4	5	-3	2152
1	-2	1	8	1	3996
1	-9	-4	10	-5	5754
1	1	0	0	0	6309
1	-1	0	0	0	6309
1	0	1	0	0	6309
1	0	-1	0	0	6309
1	0	0	1	0	6309
1	0	0	-1	0	6309
1	0	0	0	1	6309
1	0	0	0	-1	6309
